p cnf 120 152
-1 118 0 
-2 3 4 5 9 16 17 18 21 22 23 39 40 41 42 43 44 45 46 47 48 49 50 51 52 53 56 57 58 59 62 63 64 69 95 96 98 100 118 0 
-3 2 4 5 9 16 17 18 21 22 23 39 40 41 42 43 44 45 46 47 48 49 50 51 52 53 56 57 58 59 62 63 64 69 95 96 98 100 118 0 
-4 2 3 5 9 16 17 18 21 22 23 39 40 41 42 43 44 45 46 47 48 49 50 51 52 53 56 57 58 59 62 63 64 69 95 96 98 100 118 0 
-5 2 3 4 9 16 17 18 21 22 23 39 40 41 42 43 44 45 46 47 48 49 50 51 52 53 56 57 58 59 62 63 64 69 95 96 98 100 118 0 
-6 118 0 
-7 118 0 
-8 97 118 0 
-9 2 3 4 5 16 17 18 21 22 23 39 40 41 42 43 44 45 46 47 48 49 50 51 52 53 56 57 58 59 62 63 64 69 95 96 98 100 118 0 
-10 14 34 37 70 99 118 0 
-11 12 13 15 19 24 73 76 81 118 0 
-12 11 13 15 19 24 73 76 81 118 0 
-13 11 12 15 19 24 73 76 81 118 0 
-14 10 34 37 70 99 118 0 
-15 11 12 13 19 24 73 76 81 118 0 
-16 2 3 4 5 9 17 18 21 22 23 39 40 41 42 43 44 45 46 47 48 49 50 51 52 53 56 57 58 59 62 63 64 69 95 96 98 100 118 0 
-17 2 3 4 5 9 16 18 21 22 23 39 40 41 42 43 44 45 46 47 48 49 50 51 52 53 56 57 58 59 62 63 64 69 95 96 98 100 118 0 
-1 119 0 
-18 2 3 4 5 9 16 17 21 22 23 39 40 41 42 43 44 45 46 47 48 49 50 51 52 53 56 57 58 59 62 63 64 69 95 96 98 100 119 0 
-7 119 0 
-19 11 12 13 15 24 73 76 81 -20 118 0 
-3 2 4 5 9 16 17 18 21 22 23 39 40 41 42 43 44 45 46 47 48 49 50 51 52 53 56 57 58 59 62 63 64 69 95 96 98 100 -20 118 0 
-10 14 34 37 70 99 -20 118 0 
-21 2 3 4 5 9 16 17 18 22 23 39 40 41 42 43 44 45 46 47 48 49 50 51 52 53 56 57 58 59 62 63 64 69 95 96 98 100 118 0 
-22 2 3 4 5 9 16 17 18 21 23 39 40 41 42 43 44 45 46 47 48 49 50 51 52 53 56 57 58 59 62 63 64 69 95 96 98 100 118 0 
-23 2 3 4 5 9 16 17 18 21 22 39 40 41 42 43 44 45 46 47 48 49 50 51 52 53 56 57 58 59 62 63 64 69 95 96 98 100 118 0 
-24 11 12 13 15 19 73 76 81 118 0 
-25 30 83 118 0 
-26 78 101 118 0 
-27 118 0 
-28 118 0 
-29 118 0 
-30 25 83 118 0 
-31 32 80 93 118 0 
-32 31 80 93 118 0 
-33 35 38 108 118 0 
-34 10 14 37 70 99 118 0 
-35 33 38 108 -36 118 0 
-37 10 14 34 70 99 118 0 
-38 33 35 108 118 0 
-38 33 35 108 -20 118 0 
-39 2 3 4 5 9 16 17 18 21 22 23 40 41 42 43 44 45 46 47 48 49 50 51 52 53 56 57 58 59 62 63 64 69 95 96 98 100 118 0 
-40 2 3 4 5 9 16 17 18 21 22 23 39 41 42 43 44 45 46 47 48 49 50 51 52 53 56 57 58 59 62 63 64 69 95 96 98 100 118 0 
-41 2 3 4 5 9 16 17 18 21 22 23 39 40 42 43 44 45 46 47 48 49 50 51 52 53 56 57 58 59 62 63 64 69 95 96 98 100 118 0 
-42 2 3 4 5 9 16 17 18 21 22 23 39 40 41 43 44 45 46 47 48 49 50 51 52 53 56 57 58 59 62 63 64 69 95 96 98 100 118 0 
-43 2 3 4 5 9 16 17 18 21 22 23 39 40 41 42 44 45 46 47 48 49 50 51 52 53 56 57 58 59 62 63 64 69 95 96 98 100 118 0 
-44 2 3 4 5 9 16 17 18 21 22 23 39 40 41 42 43 45 46 47 48 49 50 51 52 53 56 57 58 59 62 63 64 69 95 96 98 100 118 0 
-45 2 3 4 5 9 16 17 18 21 22 23 39 40 41 42 43 44 46 47 48 49 50 51 52 53 56 57 58 59 62 63 64 69 95 96 98 100 118 0 
-46 2 3 4 5 9 16 17 18 21 22 23 39 40 41 42 43 44 45 47 48 49 50 51 52 53 56 57 58 59 62 63 64 69 95 96 98 100 118 0 
-47 2 3 4 5 9 16 17 18 21 22 23 39 40 41 42 43 44 45 46 48 49 50 51 52 53 56 57 58 59 62 63 64 69 95 96 98 100 118 0 
-48 2 3 4 5 9 16 17 18 21 22 23 39 40 41 42 43 44 45 46 47 49 50 51 52 53 56 57 58 59 62 63 64 69 95 96 98 100 118 0 
-18 2 3 4 5 9 16 17 21 22 23 39 40 41 42 43 44 45 46 47 48 49 50 51 52 53 56 57 58 59 62 63 64 69 95 96 98 100 118 0 
-49 2 3 4 5 9 16 17 18 21 22 23 39 40 41 42 43 44 45 46 47 48 50 51 52 53 56 57 58 59 62 63 64 69 95 96 98 100 118 0 
-50 2 3 4 5 9 16 17 18 21 22 23 39 40 41 42 43 44 45 46 47 48 49 51 52 53 56 57 58 59 62 63 64 69 95 96 98 100 118 0 
-51 2 3 4 5 9 16 17 18 21 22 23 39 40 41 42 43 44 45 46 47 48 49 50 52 53 56 57 58 59 62 63 64 69 95 96 98 100 118 0 
-52 2 3 4 5 9 16 17 18 21 22 23 39 40 41 42 43 44 45 46 47 48 49 50 51 53 56 57 58 59 62 63 64 69 95 96 98 100 118 0 
-53 2 3 4 5 9 16 17 18 21 22 23 39 40 41 42 43 44 45 46 47 48 49 50 51 52 56 57 58 59 62 63 64 69 95 96 98 100 118 0 
-54 118 0 
-55 118 0 
-56 2 3 4 5 9 16 17 18 21 22 23 39 40 41 42 43 44 45 46 47 48 49 50 51 52 53 57 58 59 62 63 64 69 95 96 98 100 119 0 
-57 2 3 4 5 9 16 17 18 21 22 23 39 40 41 42 43 44 45 46 47 48 49 50 51 52 53 56 58 59 62 63 64 69 95 96 98 100 118 0 
-58 2 3 4 5 9 16 17 18 21 22 23 39 40 41 42 43 44 45 46 47 48 49 50 51 52 53 56 57 59 62 63 64 69 95 96 98 100 118 0 
-59 2 3 4 5 9 16 17 18 21 22 23 39 40 41 42 43 44 45 46 47 48 49 50 51 52 53 56 57 58 62 63 64 69 95 96 98 100 118 0 
-60 61 67 85 94 102 112 118 0 
-61 60 67 85 94 102 112 118 0 
-62 2 3 4 5 9 16 17 18 21 22 23 39 40 41 42 43 44 45 46 47 48 49 50 51 52 53 56 57 58 59 63 64 69 95 96 98 100 118 0 
-63 2 3 4 5 9 16 17 18 21 22 23 39 40 41 42 43 44 45 46 47 48 49 50 51 52 53 56 57 58 59 62 64 69 95 96 98 100 118 0 
-64 2 3 4 5 9 16 17 18 21 22 23 39 40 41 42 43 44 45 46 47 48 49 50 51 52 53 56 57 58 59 62 63 69 95 96 98 100 118 0 
-29 -54 118 0 
-65 -25 30 83 118 0 
-65 -31 32 80 93 118 0 
-20 118 0 
-66 117 118 0 
-55 118 0 
-67 60 61 85 94 102 112 118 0 
-68 118 0 
-69 2 3 4 5 9 16 17 18 21 22 23 39 40 41 42 43 44 45 46 47 48 49 50 51 52 53 56 57 58 59 62 63 64 95 96 98 100 118 0 
-70 10 14 34 37 99 118 0 
-20 120 0 
-29 -71 118 0 
-72 118 0 
-73 11 12 13 15 19 24 76 81 -74 103 -20 118 0 
-75 114 -25 30 83 118 0 
-32 31 80 93 -76 11 12 13 15 19 24 73 81 118 0 
-77 118 0 
-78 26 101 118 0 
-79 118 0 
-80 31 32 93 118 0 
-81 11 12 13 15 19 24 73 76 118 0 
-82 118 0 
-30 25 83 -71 118 0 
-83 25 30 118 0 
-84 118 0 
-85 60 61 67 94 102 112 118 0 
-86 118 0 
-87 119 0 
-88 118 0 
-89 90 118 0 
-90 89 -78 26 101 118 0 
-78 26 101 -71 118 0 
-91 111 118 0 
-65 -61 60 67 85 94 102 112 118 0 
-92 -61 60 67 85 94 102 112 118 0 
-93 31 32 80 118 0 
-74 103 -20 118 0 
-94 60 61 67 85 102 112 118 0 
-95 2 3 4 5 9 16 17 18 21 22 23 39 40 41 42 43 44 45 46 47 48 49 50 51 52 53 56 57 58 59 62 63 64 69 96 98 100 118 0 
-96 2 3 4 5 9 16 17 18 21 22 23 39 40 41 42 43 44 45 46 47 48 49 50 51 52 53 56 57 58 59 62 63 64 69 95 98 100 118 0 
-97 8 118 0 
-98 2 3 4 5 9 16 17 18 21 22 23 39 40 41 42 43 44 45 46 47 48 49 50 51 52 53 56 57 58 59 62 63 64 69 95 96 100 118 0 
-99 10 14 34 37 70 118 0 
-66 117 -20 118 0 
-100 2 3 4 5 9 16 17 18 21 22 23 39 40 41 42 43 44 45 46 47 48 49 50 51 52 53 56 57 58 59 62 63 64 69 95 96 98 119 0 
-14 10 34 37 70 99 119 0 
-94 60 61 67 85 102 112 119 0 
-101 26 78 118 0 
-102 60 61 67 85 94 112 118 0 
-29 -103 74 -20 118 0 
-29 -104 106 107 110 116 -32 31 80 93 118 0 
-105 -106 104 107 110 116 -71 118 0 
-54 119 0 
-29 -107 104 106 110 116 -87 118 0 
-25 30 83 -107 104 106 110 116 -87 118 0 
-108 33 35 38 -87 -104 106 107 110 116 118 0 
-35 33 38 108 -71 118 0 
-109 -71 118 0 
-109 -36 118 0 
-36 118 0 
-108 33 35 38 -36 118 0 
-32 31 80 93 -36 118 0 
-110 104 106 107 116 118 0 
-105 -92 -102 60 61 67 85 94 112 118 0 
-111 91 118 0 
-99 10 14 34 37 70 -71 118 0 
-112 60 61 67 85 94 102 118 0 
-87 118 0 
-27 -71 118 0 
-32 31 80 93 -104 106 107 110 116 -108 33 35 38 118 0 
-105 -29 -104 106 107 110 116 -32 31 80 93 118 0 
-87 -36 118 0 
-27 -20 118 0 
-113 118 0 
-105 -83 25 30 -29 118 0 
-105 -29 -104 106 107 110 116 -32 31 80 93 -71 118 0 
-25 30 83 -29 118 0 
-105 -114 75 -91 111 118 0 
-108 33 35 38 -71 118 0 
-77 -115 118 0 
-74 103 118 0 
-116 104 106 107 110 -109 -103 74 118 0 
-108 33 35 38 -78 26 101 -103 74 -20 118 0 
-29 -117 66 -20 118 0 
